 
data_ps16bw
 
_audit_creation_method            SHELXL-97
_chemical_name_systematic
;
 ?
;
_chemical_name_common              'PS266F3'
_chemical_melting_point           ?
_chemical_formula_moiety
'C52 H40 Cl N5 O4 Zn, C3.89 H9.22, C 0.72 H1.44 Cl2, 0.28(C H2 Cl2)'
_chemical_formula_sum
 	'C56.89 H51.22 Cl 3.56 N5 O4 Zn'
_chemical_formula_weight          1060.36
 
loop_
 _atom_type_symbol
 _atom_type_description
 _atom_type_scat_dispersion_real
 _atom_type_scat_dispersion_imag
 _atom_type_scat_source
 'C'  'C'   0.0181   0.0091
 'International Tables Vol C Tables 4.2.6.8 and 6.1.1.4'
 'H'  'H'   0.0000   0.0000
 'International Tables Vol C Tables 4.2.6.8 and 6.1.1.4'
 'N'  'N'   0.0311   0.0180
 'International Tables Vol C Tables 4.2.6.8 and 6.1.1.4'
 'O'  'O'   0.0492   0.0322
 'International Tables Vol C Tables 4.2.6.8 and 6.1.1.4'
 'Zn'  'Zn'  -1.5491   0.6778
 'International Tables Vol C Tables 4.2.6.8 and 6.1.1.4'
 'Cl'  'Cl'   0.3639   0.7018
 'International Tables Vol C Tables 4.2.6.8 and 6.1.1.4'
 
_symmetry_cell_setting             orthorhombic
_symmetry_space_group_name_H-M    P212121
 
loop_
 _symmetry_equiv_pos_as_xyz
 'x, y, z'
 '-x+1/2, -y, z+1/2'
 'x+1/2, -y+1/2, -z'
 '-x, y+1/2, -z+1/2'
 
_cell_length_a                    11.26360(10)
_cell_length_b                    19.28510(10)
_cell_length_c                    23.62160(10)
_cell_angle_alpha                 90.00
_cell_angle_beta                  90.00
_cell_angle_gamma                 90.00
_cell_volume                      5131.08(6)
_cell_formula_units_Z             4
_cell_measurement_temperature      102(2)
_cell_measurement_reflns_used      102338
_cell_measurement_theta_min     4.3340
_cell_measurement_theta_max     75.5330
 
_exptl_crystal_description        needle
_exptl_crystal_colour             black
_exptl_crystal_size_max           0.18
_exptl_crystal_size_mid           0.08
_exptl_crystal_size_min           0.06
_exptl_crystal_density_meas       ?
_exptl_crystal_density_diffrn     1.371
_exptl_crystal_density_method     'not measured'
_exptl_crystal_F_000              2195
_exptl_absorpt_coefficient_mu      2.781
_exptl_absorpt_correction_type       'multi-scan'
_exptl_absorpt_correction_T_min    0.58750
_exptl_absorpt_correction_T_max                   1.00000
_exptl_absorpt_process_details    
;
CrysAlisPro, Agilent Technologies,
Version 1.171.36.28 (release 01-02-2013 CrysAlis171 .NET)
(compiled Feb  1 2013,16:14:44)
Empirical absorption correction using spherical harmonics,
 implemented in SCALE3 ABSPACK scaling algorithm.
;
 
_exptl_special_details
;
 ?
;
 
_diffrn_ambient_temperature       102(2)
_diffrn_radiation_wavelength      1.54184
_diffrn_radiation_type            'Cu K\a'
_diffrn_radiation_source 'Nova (Cu) X-ray Source'
_diffrn_radiation_monochromator 'mirror'
_diffrn_measurement_device_type 'Xcalibur, Atlas, Nova'
_diffrn_measurement_method         '\w scans'
_diffrn_detector_area_resol_mean  10.3543
_diffrn_standards_number          ?
_diffrn_standards_interval_count  ?
_diffrn_standards_interval_time   ?
_diffrn_standards_decay_%         ?
_diffrn_reflns_number             127526
_diffrn_reflns_av_R_equivalents   0.0335
_diffrn_reflns_av_sigmaI/netI     0.0110
_diffrn_reflns_limit_h_min        -12
_diffrn_reflns_limit_h_max        13
_diffrn_reflns_limit_k_min        -23
_diffrn_reflns_limit_k_max        23
_diffrn_reflns_limit_l_min        -28
_diffrn_reflns_limit_l_max        28
_diffrn_reflns_theta_min          3.74
_diffrn_reflns_theta_max          70.00
_reflns_number_total              9724
_reflns_number_gt                 9630
_reflns_threshold_expression      >2\s(I)
 
_computing_data_collection
;
CrysAlisPro, Agilent Technologies,
Version 1.171.36.28 (release 01-02-2013 CrysAlis171 .NET)
(compiled Feb  1 2013,16:14:44)
;
_computing_cell_refinement
;
CrysAlisPro, Agilent Technologies,
Version 1.171.36.28 (release 01-02-2013 CrysAlis171 .NET)
(compiled Feb  1 2013,16:14:44)
;
_computing_data_reduction
;
CrysAlisPro, Agilent Technologies,
Version 1.171.36.28 (release 01-02-2013 CrysAlis171 .NET)
(compiled Feb  1 2013,16:14:44)
;
_computing_structure_solution     
;
 SIR-92 (A. Altomare, G. Cascarano, C. Giacovazzo and A. Guagliardi,
 J. Appl. Crystallogr. 1993, 26, 343-350.)
;
_computing_structure_refinement
;
 SHELXL-97 (G. M. Sheldrick, Acta Cryst. (2008). A64, 122-122)'
;
_computing_molecular_graphics
;
 ORTEP3 for Windows (L. J. Farrugia, J. Appl. Crystallogr. 1997, 30, 565.)
;
_computing_publication_material
;
 WinGX v1.80.05 (L. J. Farrugia, J. Appl. Cryst., 1999, 32, 837-838.)
;
 
_refine_special_details
;
 The Solvent molecules n-pentane and dichlormethane were refined with restrains
 at the bondlengths and angles. Furthermore the carbon atoms (C205, C301) have 
 also a isor restrain.
 The solvent molecule n-pentane have an occupancy of 0.71(1)and the corresponding
 dichlormethane have an occupancy of 0.29(1).
 Residual electrondensity (Q1: 1.33, Q2: 1.01 are located at the disordered
 solvent molecules.
 The proton of the external pyrrole are refind freely.
 All other H atoms were refined using a riding model, with a common U restrained
 to be 1.2 (1.5 for methyl groups) times the equivalent isotropic displacement
 parameter of the parent atom. Methyl groups were treated as a rigid bodies and
 allowed to rotate about the E-CH3 bond.
 Refinement of F^2^ against ALL reflections.  The weighted R-factor wR and
 goodness of fit S are based on F^2^, conventional R-factors R are based
 on F, with F set to zero for negative F^2^. The threshold expression of
 F^2^ > 2\s(F^2^) is used only for calculating R-factors(gt) etc. and is
 not relevant to the choice of reflections for refinement.  R-factors based
 on F^2^ are statistically about twice as large as those based on F, and R-
 factors based on ALL data will be even larger.
;
 
_refine_ls_structure_factor_coef  Fsqd
_refine_ls_matrix_type            full
_refine_ls_weighting_scheme       calc
_refine_ls_weighting_details
 'calc w=1/[\s^2^(Fo^2^)+(0.1248P)^2^+5.3757P] where P=(Fo^2^+2Fc^2^)/3'
_atom_sites_solution_primary      direct
_atom_sites_solution_secondary    difmap
_atom_sites_solution_hydrogens    geom
_refine_ls_hydrogen_treatment     mixed
_refine_ls_extinction_method      none
_refine_ls_extinction_coef        ?
_refine_ls_abs_structure_details
 'Flack H D (1983), Acta Cryst. A39, 876-881, 4743 friedel pairs measured'
_refine_ls_abs_structure_Flack    -0.001(18)
_refine_ls_number_reflns          9724
_refine_ls_number_parameters      676
_refine_ls_number_restraints      25
_refine_ls_R_factor_all           0.0579
_refine_ls_R_factor_gt            0.0575
_refine_ls_wR_factor_ref          0.1717
_refine_ls_wR_factor_gt           0.1711
_refine_ls_goodness_of_fit_ref    1.092
_refine_ls_restrained_S_all       1.092
_refine_ls_shift/su_max           0.001
_refine_ls_shift/su_mean          0.000
 
loop_
 _atom_site_label
 _atom_site_type_symbol
 _atom_site_fract_x
 _atom_site_fract_y
 _atom_site_fract_z
 _atom_site_U_iso_or_equiv
 _atom_site_adp_type
 _atom_site_occupancy
 _atom_site_symmetry_multiplicity
 _atom_site_calc_flag
 _atom_site_refinement_flags
 _atom_site_disorder_assembly
 _atom_site_disorder_group
H5N H 1.063(5) 0.167(3) 0.3748(19) 0.020(11) Uiso 1 1 d . . .
Zn1 Zn 0.83153(4) 0.09584(2) 0.452496(18) 0.01910(14) Uani 1 1 d . . .
Cl1 Cl 0.97835(8) 0.04229(5) 0.39895(4) 0.0278(2) Uani 1 1 d . . .
N1 N 0.7980(3) 0.18347(15) 0.40005(13) 0.0193(6) Uani 1 1 d . . .
N2 N 0.6716(3) 0.05578(14) 0.42290(12) 0.0210(6) Uani 1 1 d . . .
N3 N 0.8077(3) 0.03726(15) 0.52662(13) 0.0211(6) Uani 1 1 d . . .
N4 N 0.9395(3) 0.16305(15) 0.50176(12) 0.0188(6) Uani 1 1 d . . .
O1 O 0.3156(3) 0.18191(15) 0.16052(12) 0.0314(6) Uani 1 1 d . . .
O2 O 0.4904(4) -0.31971(15) 0.50014(19) 0.0542(10) Uani 1 1 d . . .
O3 O 1.1798(3) 0.0752(2) 0.80342(14) 0.0510(9) Uani 1 1 d . . .
O4 O 0.7902(3) 0.53391(15) 0.47620(13) 0.0356(7) Uani 1 1 d . . .
C1 C 0.8741(3) 0.23532(18) 0.39170(15) 0.0203(7) Uani 1 1 d . . .
C2 C 0.8563(3) 0.26771(19) 0.33753(15) 0.0242(7) Uani 1 1 d . . .
H2 H 0.9006 0.3052 0.3222 0.029 Uiso 1 1 calc R . .
C3 C 0.7645(3) 0.23458(19) 0.31257(15) 0.0225(7) Uani 1 1 d . . .
H3 H 0.7320 0.2444 0.2764 0.027 Uiso 1 1 calc R . .
C4 C 0.7249(3) 0.18099(18) 0.35153(15) 0.0198(7) Uani 1 1 d . . .
C5 C 0.6310(3) 0.13674(18) 0.34395(14) 0.0197(7) Uani 1 1 d . . .
C6 C 0.6004(3) 0.07998(18) 0.38063(15) 0.0215(7) Uani 1 1 d . . .
C7 C 0.4960(3) 0.03803(19) 0.37586(16) 0.0257(7) Uani 1 1 d . . .
H7 H 0.4311 0.0450 0.3508 0.031 Uiso 1 1 calc R . .
C8 C 0.5083(3) -0.01402(19) 0.41456(16) 0.0253(7) Uani 1 1 d . . .
H8 H 0.4545 -0.0511 0.4210 0.030 Uiso 1 1 calc R . .
C9 C 0.6165(3) -0.00225(18) 0.44330(15) 0.0215(7) Uani 1 1 d . . .
C10 C 0.6602(3) -0.04476(18) 0.48840(15) 0.0226(7) Uani 1 1 d . . .
C11 C 0.7490(3) -0.02589(18) 0.52657(16) 0.0236(7) Uani 1 1 d . . .
C12 C 0.7902(4) -0.0667(2) 0.57264(18) 0.0314(9) Uani 1 1 d . . .
H12 H 0.7658 -0.1126 0.5815 0.038 Uiso 1 1 calc R . .
C13 C 0.8706(4) -0.0284(2) 0.60173(18) 0.0300(8) Uani 1 1 d . . .
H13 H 0.9114 -0.0413 0.6353 0.036 Uiso 1 1 calc R . .
C14 C 0.8812(3) 0.03543(19) 0.57132(16) 0.0226(7) Uani 1 1 d . . .
C15 C 0.9636(3) 0.08983(18) 0.58699(15) 0.0204(7) Uani 1 1 d . . .
C16 C 0.9893(3) 0.14741(18) 0.55503(14) 0.0195(6) Uani 1 1 d . . .
C17 C 1.0667(3) 0.20358(19) 0.57208(15) 0.0207(7) Uani 1 1 d . . .
H17 H 1.1114 0.2064 0.6061 0.025 Uiso 1 1 calc R . .
C18 C 1.0631(3) 0.25107(19) 0.53033(15) 0.0225(7) Uani 1 1 d . . .
H18 H 1.1046 0.2939 0.5290 0.027 Uiso 1 1 calc R . .
C19 C 0.9826(3) 0.22350(18) 0.48757(14) 0.0196(7) Uani 1 1 d . . .
C20 C 0.9657(3) 0.26174(18) 0.43235(15) 0.0197(7) Uani 1 1 d . . .
C21 C 0.5517(3) 0.14855(18) 0.29400(14) 0.0199(7) Uani 1 1 d . . .
C22 C 0.5044(3) 0.21447(18) 0.28156(16) 0.0226(7) Uani 1 1 d . . .
H22 H 0.5261 0.2531 0.3043 0.027 Uiso 1 1 calc R . .
C23 C 0.4274(3) 0.22383(19) 0.23709(16) 0.0239(7) Uani 1 1 d . . .
H23 H 0.3962 0.2687 0.2295 0.029 Uiso 1 1 calc R . .
C24 C 0.3946(3) 0.1678(2) 0.20286(16) 0.0245(7) Uani 1 1 d . . .
C25 C 0.4411(3) 0.1024(2) 0.21427(16) 0.0250(7) Uani 1 1 d . . .
H25 H 0.4193 0.0638 0.1915 0.030 Uiso 1 1 calc R . .
C26 C 0.5188(3) 0.0939(2) 0.25872(15) 0.0241(7) Uani 1 1 d . . .
H26 H 0.5512 0.0492 0.2656 0.029 Uiso 1 1 calc R . .
C27 C 0.2825(4) 0.1258(2) 0.12400(19) 0.0366(9) Uani 1 1 d . . .
H27A H 0.3521 0.1104 0.1024 0.055 Uiso 1 1 calc R . .
H27B H 0.2206 0.1413 0.0978 0.055 Uiso 1 1 calc R . .
H27C H 0.2523 0.0871 0.1468 0.055 Uiso 1 1 calc R . .
C28 C 0.6072(3) -0.11475(18) 0.49298(17) 0.0249(7) Uani 1 1 d . . .
C29 C 0.5545(3) -0.13967(19) 0.54283(18) 0.0272(8) Uani 1 1 d . . .
H29 H 0.5473 -0.1098 0.5746 0.033 Uiso 1 1 calc R . .
C30 C 0.5130(4) -0.2070(2) 0.5464(2) 0.0329(8) Uani 1 1 d . . .
H30 H 0.4760 -0.2228 0.5802 0.039 Uiso 1 1 calc R . .
C31 C 0.5252(4) -0.2513(2) 0.5009(2) 0.0384(10) Uani 1 1 d . . .
C32 C 0.5773(5) -0.2279(2) 0.4507(2) 0.0454(12) Uani 1 1 d . . .
H32 H 0.5874 -0.2586 0.4196 0.054 Uiso 1 1 calc R . .
C33 C 0.6141(4) -0.1594(2) 0.4469(2) 0.0356(9) Uani 1 1 d . . .
H33 H 0.6447 -0.1427 0.4120 0.043 Uiso 1 1 calc R . .
C34 C 0.4448(5) -0.3480(2) 0.5510(3) 0.0586(16) Uani 1 1 d . . .
H34A H 0.5080 -0.3501 0.5794 0.088 Uiso 1 1 calc R . .
H34B H 0.4148 -0.3949 0.5438 0.088 Uiso 1 1 calc R . .
H34C H 0.3799 -0.3188 0.5650 0.088 Uiso 1 1 calc R . .
C35 C 1.0229(3) 0.08403(18) 0.64371(15) 0.0212(7) Uani 1 1 d . . .
C36 C 0.9575(3) 0.08913(19) 0.69382(16) 0.0254(7) Uani 1 1 d . . .
H36 H 0.8737 0.0944 0.6921 0.030 Uiso 1 1 calc R . .
C37 C 1.0132(4) 0.0865(2) 0.74569(16) 0.0294(8) Uani 1 1 d . . .
H37 H 0.9675 0.0911 0.7793 0.035 Uiso 1 1 calc R . .
C38 C 1.1350(4) 0.0773(2) 0.74959(17) 0.0328(9) Uani 1 1 d . . .
C39 C 1.2016(4) 0.0722(2) 0.70015(19) 0.0343(9) Uani 1 1 d . . .
H39 H 1.2852 0.0662 0.7022 0.041 Uiso 1 1 calc R . .
C40 C 1.1454(4) 0.0760(2) 0.64774(17) 0.0276(8) Uani 1 1 d . . .
H40 H 1.1915 0.0730 0.6142 0.033 Uiso 1 1 calc R . .
C41 C 1.3035(6) 0.0611(5) 0.8093(3) 0.089(3) Uani 1 1 d . . .
H41A H 1.3271 0.0257 0.7817 0.133 Uiso 1 1 calc R . .
H41B H 1.3196 0.0442 0.8476 0.133 Uiso 1 1 calc R . .
H41C H 1.3489 0.1036 0.8024 0.133 Uiso 1 1 calc R . .
C42 C 0.9268(3) 0.33660(18) 0.44635(15) 0.0206(7) Uani 1 1 d . . .
C43 C 0.8423(3) 0.34596(18) 0.48867(15) 0.0231(7) Uani 1 1 d . . .
H43 H 0.8164 0.3070 0.5100 0.028 Uiso 1 1 calc R . .
C44 C 0.7946(3) 0.4112(2) 0.50056(16) 0.0267(8) Uani 1 1 d . . .
H44 H 0.7370 0.4168 0.5296 0.032 Uiso 1 1 calc R . .
C45 C 0.8332(4) 0.46780(19) 0.46909(16) 0.0260(7) Uani 1 1 d . . .
C46 C 0.9192(4) 0.4593(2) 0.42765(17) 0.0257(8) Uani 1 1 d . . .
H46 H 0.9467 0.4984 0.4070 0.031 Uiso 1 1 calc R . .
C47 C 0.9650(3) 0.39463(19) 0.41616(15) 0.0241(7) Uani 1 1 d . . .
H47 H 1.0233 0.3895 0.3874 0.029 Uiso 1 1 calc R . .
C48 C 0.6865(6) 0.5404(3) 0.5102(2) 0.0554(15) Uani 1 1 d . . .
H48A H 0.6326 0.5017 0.5023 0.083 Uiso 1 1 calc R . .
H48B H 0.6467 0.5843 0.5015 0.083 Uiso 1 1 calc R . .
H48C H 0.7089 0.5397 0.5503 0.083 Uiso 1 1 calc R . .
N5 N 1.1143(3) 0.19340(17) 0.37738(14) 0.0254(7) Uani 1 1 d . . .
C49 C 1.0875(3) 0.25519(19) 0.40410(15) 0.0218(7) Uani 1 1 d . . .
C50 C 1.1867(3) 0.2965(2) 0.40284(16) 0.0249(7) Uani 1 1 d . . .
H50 H 1.1937 0.3418 0.4181 0.030 Uiso 1 1 calc R . .
C51 C 1.2769(4) 0.2587(2) 0.37441(17) 0.0291(8) Uani 1 1 d . . .
H51 H 1.3554 0.2743 0.3671 0.035 Uiso 1 1 calc R . .
C52 C 1.2304(4) 0.1956(2) 0.35946(18) 0.0303(8) Uani 1 1 d . . .
H52 H 1.2712 0.1597 0.3401 0.036 Uiso 1 1 calc R . .
Cl12 Cl 0.78718(17) 0.68095(11) 0.56626(8) 0.0833(5) Uani 1 1 d D . .
Cl11 Cl 0.7233(2) 0.76810(13) 0.66242(7) 0.0988(7) Uani 1 1 d D . .
C202 C 0.3365(7) 0.6258(3) 0.7114(3) 0.118(4) Uani 1 1 d D . .
H20A H 0.3597 0.6106 0.6729 0.142 Uiso 1 1 calc R A 1
H20B H 0.2488 0.6282 0.7132 0.142 Uiso 1 1 calc R A 1
C101 C 0.8411(2) 0.7324(4) 0.6225(3) 0.065(2) Uani 0.714(6) 1 d PD B 1
H10A H 0.8917 0.7037 0.6475 0.078 Uiso 0.714(6) 1 calc PR B 1
H10B H 0.8907 0.7704 0.6071 0.078 Uiso 0.714(6) 1 calc PR B 1
C201 C 0.3906(8) 0.6974(3) 0.7243(5) 0.077(3) Uani 0.714(6) 1 d PD B 1
H20C H 0.4011 0.7025 0.7653 0.116 Uiso 0.714(6) 1 calc PR B 1
H20D H 0.3373 0.7338 0.7104 0.116 Uiso 0.714(6) 1 calc PR B 1
H20E H 0.4678 0.7015 0.7055 0.116 Uiso 0.714(6) 1 calc PR B 1
C204 C 0.3281(12) 0.5027(3) 0.7434(4) 0.099(4) Uani 0.714(6) 1 d PD B 1
H20F H 0.2405 0.5064 0.7424 0.118 Uiso 0.714(6) 1 calc PR B 1
H20G H 0.3556 0.4855 0.7061 0.118 Uiso 0.714(6) 1 calc PR B 1
C203 C 0.3835(9) 0.5741(4) 0.7558(4) 0.096(4) Uani 0.714(6) 1 d PD B 1
H20H H 0.4711 0.5713 0.7537 0.115 Uiso 0.714(6) 1 calc PR B 1
H20I H 0.3612 0.5897 0.7943 0.115 Uiso 0.714(6) 1 calc PR B 1
C205 C 0.3669(16) 0.4525(5) 0.7906(6) 0.133(6) Uani 0.714(6) 1 d PDU B 1
H20J H 0.4504 0.4399 0.7851 0.199 Uiso 0.714(6) 1 calc PR B 1
H20K H 0.3177 0.4106 0.7891 0.199 Uiso 0.714(6) 1 calc PR B 1
H20L H 0.3572 0.4750 0.8275 0.199 Uiso 0.714(6) 1 calc PR B 1
Cl32 Cl 0.5140(7) 0.3729(4) 0.7692(3) 0.093(3) Uani 0.286(6) 1 d PD B 3
Cl31 Cl 0.3992(9) 0.5038(4) 0.7979(4) 0.107(3) Uani 0.286(6) 1 d PD B 3
C301 C 0.3940(13) 0.4291(6) 0.7547(7) 0.060(5) Uani 0.286(6) 1 d PDU B 3
H10C H 0.3183 0.4043 0.7613 0.072 Uiso 0.286(6) 1 calc PR B 3
H10D H 0.3966 0.4431 0.7144 0.072 Uiso 0.286(6) 1 calc PR B 3
 
loop_
 _atom_site_aniso_label
 _atom_site_aniso_U_11
 _atom_site_aniso_U_22
 _atom_site_aniso_U_33
 _atom_site_aniso_U_23
 _atom_site_aniso_U_13
 _atom_site_aniso_U_12
Zn1 0.0174(2) 0.0173(2) 0.0226(2) 0.00006(17) -0.00060(17) -0.00129(17)
Cl1 0.0256(4) 0.0234(4) 0.0344(4) -0.0034(3) 0.0061(3) 0.0030(3)
N1 0.0173(14) 0.0181(13) 0.0225(14) -0.0013(11) -0.0004(11) -0.0010(10)
N2 0.0215(14) 0.0172(13) 0.0243(14) 0.0002(11) -0.0005(12) -0.0027(12)
N3 0.0208(15) 0.0186(14) 0.0238(14) -0.0001(11) 0.0011(11) -0.0017(11)
N4 0.0203(14) 0.0159(13) 0.0201(14) -0.0015(11) -0.0014(11) -0.0002(11)
O1 0.0342(15) 0.0335(14) 0.0266(13) -0.0042(11) -0.0123(12) 0.0022(12)
O2 0.062(2) 0.0163(14) 0.085(3) -0.0004(16) -0.014(2) -0.0093(15)
O3 0.0476(19) 0.073(2) 0.0326(16) 0.0204(16) -0.0177(15) -0.0251(18)
O4 0.0448(18) 0.0228(13) 0.0393(16) 0.0010(11) 0.0021(13) 0.0096(13)
C1 0.0208(16) 0.0176(15) 0.0226(16) 0.0009(13) 0.0002(13) -0.0006(13)
C2 0.0249(18) 0.0241(17) 0.0237(17) 0.0039(14) 0.0007(14) -0.0044(14)
C3 0.0214(17) 0.0248(17) 0.0214(16) 0.0033(14) -0.0002(14) -0.0004(14)
C4 0.0198(16) 0.0191(16) 0.0206(15) 0.0001(13) -0.0021(13) -0.0002(13)
C5 0.0203(16) 0.0184(15) 0.0206(15) -0.0033(13) 0.0001(13) 0.0032(13)
C6 0.0181(16) 0.0212(16) 0.0251(17) -0.0033(13) -0.0014(13) -0.0011(13)
C7 0.0204(17) 0.0258(17) 0.0308(18) -0.0026(15) 0.0010(14) -0.0030(15)
C8 0.0225(18) 0.0251(17) 0.0283(18) 0.0009(14) 0.0009(14) -0.0035(14)
C9 0.0203(16) 0.0191(16) 0.0252(17) -0.0018(13) 0.0013(14) -0.0030(13)
C10 0.0215(17) 0.0191(16) 0.0272(17) 0.0015(13) 0.0017(14) -0.0016(14)
C11 0.0266(18) 0.0160(15) 0.0281(18) 0.0030(13) 0.0003(14) -0.0017(14)
C12 0.038(2) 0.0229(18) 0.034(2) 0.0085(16) -0.0103(17) -0.0070(16)
C13 0.033(2) 0.0227(18) 0.034(2) 0.0068(16) -0.0047(17) -0.0015(15)
C14 0.0218(17) 0.0209(17) 0.0250(16) 0.0034(14) 0.0006(14) -0.0011(14)
C15 0.0153(15) 0.0198(16) 0.0260(16) -0.0001(13) 0.0022(13) 0.0015(13)
C16 0.0185(16) 0.0206(15) 0.0194(15) -0.0022(13) -0.0034(13) 0.0000(13)
C17 0.0168(16) 0.0229(17) 0.0225(16) -0.0004(14) -0.0015(13) -0.0008(13)
C18 0.0211(17) 0.0228(17) 0.0237(17) -0.0026(13) -0.0031(13) -0.0050(14)
C19 0.0163(15) 0.0233(16) 0.0192(15) -0.0008(13) -0.0019(13) -0.0012(13)
C20 0.0175(16) 0.0193(16) 0.0222(16) 0.0016(13) -0.0003(13) -0.0023(13)
C21 0.0171(16) 0.0217(17) 0.0210(16) -0.0020(13) -0.0015(13) -0.0007(13)
C22 0.0221(17) 0.0198(16) 0.0261(17) -0.0044(13) 0.0004(14) -0.0016(14)
C23 0.0250(18) 0.0228(18) 0.0238(17) 0.0016(14) -0.0044(14) 0.0034(14)
C24 0.0227(17) 0.0272(18) 0.0236(17) -0.0022(14) -0.0005(14) -0.0021(15)
C25 0.0253(17) 0.0238(18) 0.0258(17) -0.0076(14) -0.0010(14) -0.0041(15)
C26 0.0238(17) 0.0225(17) 0.0259(17) -0.0020(14) -0.0004(14) -0.0015(15)
C27 0.037(2) 0.041(2) 0.032(2) -0.0076(18) -0.0157(18) -0.0065(19)
C28 0.0239(17) 0.0181(16) 0.0327(19) -0.0018(14) -0.0004(15) -0.0031(14)
C29 0.0257(18) 0.0216(17) 0.0342(19) 0.0017(15) 0.0007(15) -0.0013(14)
C30 0.0282(19) 0.0241(18) 0.046(2) 0.0079(17) -0.0016(19) -0.0022(15)
C31 0.036(2) 0.0170(17) 0.062(3) -0.0004(17) -0.007(2) -0.0037(16)
C32 0.071(3) 0.0215(19) 0.044(2) -0.0037(19) 0.000(3) 0.000(2)
C33 0.046(2) 0.0241(19) 0.037(2) -0.0022(17) 0.0040(19) 0.0010(18)
C34 0.042(3) 0.022(2) 0.113(5) 0.017(3) -0.004(3) -0.0100(19)
C35 0.0229(17) 0.0192(16) 0.0215(16) 0.0012(13) -0.0002(13) -0.0026(13)
C36 0.0267(18) 0.0201(17) 0.0294(18) 0.0019(14) 0.0002(15) 0.0002(14)
C37 0.041(2) 0.0253(18) 0.0221(16) 0.0036(14) 0.0000(16) -0.0036(17)
C38 0.041(2) 0.032(2) 0.0262(18) 0.0079(15) -0.0059(17) -0.0136(17)
C39 0.0237(19) 0.040(2) 0.039(2) 0.0157(18) -0.0060(16) -0.0068(16)
C40 0.0256(19) 0.0254(18) 0.0318(19) 0.0067(14) 0.0006(15) -0.0001(15)
C41 0.044(3) 0.173(9) 0.050(3) 0.045(4) -0.018(3) -0.023(4)
C42 0.0214(16) 0.0192(16) 0.0211(16) -0.0005(13) -0.0032(14) -0.0026(13)
C43 0.0200(17) 0.0225(16) 0.0267(17) 0.0035(13) 0.0007(14) -0.0030(14)
C44 0.0277(19) 0.0245(18) 0.0279(18) -0.0002(15) -0.0008(15) 0.0008(15)
C45 0.0283(19) 0.0216(17) 0.0283(17) 0.0008(14) -0.0066(15) 0.0026(15)
C46 0.0270(19) 0.0204(17) 0.0298(18) 0.0028(15) -0.0044(15) -0.0032(14)
C47 0.0231(17) 0.0239(17) 0.0251(16) 0.0026(14) -0.0027(14) -0.0048(14)
C48 0.076(4) 0.038(2) 0.052(3) 0.012(2) 0.023(3) 0.030(3)
N5 0.0198(15) 0.0218(15) 0.0345(17) -0.0011(13) 0.0026(13) -0.0049(13)
C49 0.0215(18) 0.0202(16) 0.0236(17) 0.0016(13) -0.0004(14) -0.0014(13)
C50 0.0190(17) 0.0270(17) 0.0289(17) -0.0025(14) -0.0031(14) -0.0052(14)
C51 0.0193(17) 0.037(2) 0.0314(19) 0.0016(16) 0.0010(15) -0.0004(16)
C52 0.0251(19) 0.0307(19) 0.035(2) -0.0025(16) 0.0047(16) -0.0007(16)
Cl12 0.0636(10) 0.0947(13) 0.0915(13) -0.0090(10) -0.0042(9) -0.0037(9)
Cl11 0.1083(16) 0.1293(19) 0.0589(10) 0.0062(11) 0.0005(10) 0.0298(15)
C202 0.090(6) 0.096(6) 0.170(11) 0.004(7) 0.070(8) 0.004(5)
C101 0.052(5) 0.061(5) 0.083(6) -0.004(4) -0.006(5) -0.004(4)
C201 0.047(5) 0.095(8) 0.090(7) 0.001(6) -0.008(5) 0.009(5)
C204 0.095(9) 0.107(10) 0.093(8) -0.019(7) 0.022(8) 0.006(8)
C203 0.054(6) 0.142(13) 0.092(8) 0.023(8) 0.014(6) 0.015(7)
C205 0.141(13) 0.176(15) 0.080(8) 0.028(10) 0.019(9) 0.005(12)
Cl32 0.095(5) 0.099(5) 0.086(5) 0.005(4) 0.001(4) -0.021(4)
Cl31 0.119(7) 0.112(7) 0.089(5) -0.026(5) 0.015(5) -0.024(6)
C301 0.057(8) 0.070(9) 0.053(8) 0.000(7) -0.024(7) -0.029(7)
 
_geom_special_details
;
 All s.u.'s (except the s.u. in the dihedral angle between two l.s. planes)
 are estimated using the full covariance matrix.  The cell s.u.'s are taken
 into account individually in the estimation of s.u.'s in distances, angles
 and torsion angles; correlations between s.u.'s in cell parameters are only
 used when they are defined by crystal symmetry.  An approximate (isotropic)
 treatment of cell s.u.'s is used for estimating s.u.'s involving l.s. planes.
;
 
loop_
 _geom_bond_atom_site_label_1
 _geom_bond_atom_site_label_2
 _geom_bond_distance
 _geom_bond_site_symmetry_2
 _geom_bond_publ_flag
Zn1 N2 2.081(3) . ?
Zn1 N3 2.101(3) . ?
Zn1 N4 2.125(3) . ?
Zn1 N1 2.129(3) . ?
Zn1 Cl1 2.3241(10) . ?
N1 C1 1.331(5) . ?
N1 C4 1.412(4) . ?
N2 C6 1.363(5) . ?
N2 C9 1.367(5) . ?
N3 C14 1.341(5) . ?
N3 C11 1.386(5) . ?
N4 C19 1.306(5) . ?
N4 C16 1.410(4) . ?
O1 C24 1.367(5) . ?
O1 C27 1.434(5) . ?
O2 C31 1.377(5) . ?
O2 C34 1.416(8) . ?
O3 C38 1.369(5) . ?
O3 C41 1.426(8) . ?
O4 C45 1.374(5) . ?
O4 C48 1.423(6) . ?
C1 C2 1.438(5) . ?
C1 C20 1.499(5) . ?
C2 C3 1.351(5) . ?
C2 H2 0.9500 . ?
C3 C4 1.454(5) . ?
C3 H3 0.9500 . ?
C4 C5 1.371(5) . ?
C5 C6 1.438(5) . ?
C5 C21 1.497(5) . ?
C6 C7 1.433(5) . ?
C7 C8 1.365(5) . ?
C7 H7 0.9500 . ?
C8 C9 1.413(5) . ?
C8 H8 0.9500 . ?
C9 C10 1.431(5) . ?
C10 C11 1.394(5) . ?
C10 C28 1.480(5) . ?
C11 C12 1.421(5) . ?
C12 C13 1.356(6) . ?
C12 H12 0.9500 . ?
C13 C14 1.430(5) . ?
C13 H13 0.9500 . ?
C14 C15 1.449(5) . ?
C15 C16 1.374(5) . ?
C15 C35 1.501(5) . ?
C16 C17 1.448(5) . ?
C17 C18 1.347(5) . ?
C17 H17 0.9500 . ?
C18 C19 1.457(5) . ?
C18 H18 0.9500 . ?
C19 C20 1.510(5) . ?
C20 C49 1.531(5) . ?
C20 C42 1.545(5) . ?
C21 C26 1.394(5) . ?
C21 C22 1.409(5) . ?
C22 C23 1.374(5) . ?
C22 H22 0.9500 . ?
C23 C24 1.399(5) . ?
C23 H23 0.9500 . ?
C24 C25 1.392(6) . ?
C25 C26 1.377(5) . ?
C25 H25 0.9500 . ?
C26 H26 0.9500 . ?
C27 H27A 0.9800 . ?
C27 H27B 0.9800 . ?
C27 H27C 0.9800 . ?
C28 C33 1.390(6) . ?
C28 C29 1.403(6) . ?
C29 C30 1.383(5) . ?
C29 H29 0.9500 . ?
C30 C31 1.379(7) . ?
C30 H30 0.9500 . ?
C31 C32 1.398(8) . ?
C32 C33 1.388(6) . ?
C32 H32 0.9500 . ?
C33 H33 0.9500 . ?
C34 H34A 0.9800 . ?
C34 H34B 0.9800 . ?
C34 H34C 0.9800 . ?
C35 C40 1.392(5) . ?
C35 C36 1.398(5) . ?
C36 C37 1.378(5) . ?
C36 H36 0.9500 . ?
C37 C38 1.386(7) . ?
C37 H37 0.9500 . ?
C38 C39 1.391(6) . ?
C39 C40 1.392(6) . ?
C39 H39 0.9500 . ?
C40 H40 0.9500 . ?
C41 H41A 0.9800 . ?
C41 H41B 0.9800 . ?
C41 H41C 0.9800 . ?
C42 C43 1.392(5) . ?
C42 C47 1.395(5) . ?
C43 C44 1.397(5) . ?
C43 H43 0.9500 . ?
C44 C45 1.390(6) . ?
C44 H44 0.9500 . ?
C45 C46 1.387(6) . ?
C46 C47 1.377(6) . ?
C46 H46 0.9500 . ?
C47 H47 0.9500 . ?
C48 H48A 0.9800 . ?
C48 H48B 0.9800 . ?
C48 H48C 0.9800 . ?
N5 C52 1.374(5) . ?
N5 C49 1.382(5) . ?
N5 H5N 0.77(5) . ?
C49 C50 1.372(5) . ?
C50 C51 1.419(6) . ?
C50 H50 0.9500 . ?
C51 C52 1.371(6) . ?
C51 H51 0.9500 . ?
C52 H52 0.9500 . ?
Cl12 C101 1.7672(10) . ?
Cl11 C101 1.7668(10) . ?
C202 C201 1.5401(10) . ?
C202 C203 1.5405(10) . ?
C202 H20A 0.9900 . ?
C202 H20B 0.9900 . ?
C101 H10A 0.9900 . ?
C101 H10B 0.9900 . ?
C201 H20C 0.9800 . ?
C201 H20D 0.9800 . ?
C201 H20E 0.9800 . ?
C204 C205 1.5399(10) . ?
C204 C203 1.5400(10) . ?
C204 H20F 0.9900 . ?
C204 H20G 0.9900 . ?
C203 H20H 0.9900 . ?
C203 H20I 0.9900 . ?
C205 H20J 0.9800 . ?
C205 H20K 0.9800 . ?
C205 H20L 0.9800 . ?
Cl32 C301 1.7668(10) . ?
Cl31 C301 1.7670(10) . ?
C301 H10C 0.9900 . ?
C301 H10D 0.9900 . ?
 
loop_
 _geom_angle_atom_site_label_1
 _geom_angle_atom_site_label_2
 _geom_angle_atom_site_label_3
 _geom_angle
 _geom_angle_site_symmetry_1
 _geom_angle_site_symmetry_3
 _geom_angle_publ_flag
N2 Zn1 N3 88.28(12) . . ?
N2 Zn1 N4 154.97(12) . . ?
N3 Zn1 N4 86.82(12) . . ?
N2 Zn1 N1 86.89(11) . . ?
N3 Zn1 N1 152.76(12) . . ?
N4 Zn1 N1 86.33(11) . . ?
N2 Zn1 Cl1 105.56(9) . . ?
N3 Zn1 Cl1 107.78(9) . . ?
N4 Zn1 Cl1 99.31(8) . . ?
N1 Zn1 Cl1 99.34(8) . . ?
C1 N1 C4 106.3(3) . . ?
C1 N1 Zn1 124.6(2) . . ?
C4 N1 Zn1 123.3(2) . . ?
C6 N2 C9 105.8(3) . . ?
C6 N2 Zn1 128.9(2) . . ?
C9 N2 Zn1 125.3(2) . . ?
C14 N3 C11 105.8(3) . . ?
C14 N3 Zn1 126.3(2) . . ?
C11 N3 Zn1 122.2(2) . . ?
C19 N4 C16 105.8(3) . . ?
C19 N4 Zn1 128.1(2) . . ?
C16 N4 Zn1 125.9(2) . . ?
C24 O1 C27 117.3(3) . . ?
C31 O2 C34 117.5(5) . . ?
C38 O3 C41 117.1(5) . . ?
C45 O4 C48 116.1(4) . . ?
N1 C1 C2 111.6(3) . . ?
N1 C1 C20 127.1(3) . . ?
C2 C1 C20 121.2(3) . . ?
C3 C2 C1 106.8(3) . . ?
C3 C2 H2 126.6 . . ?
C1 C2 H2 126.6 . . ?
C2 C3 C4 107.1(3) . . ?
C2 C3 H3 126.4 . . ?
C4 C3 H3 126.4 . . ?
C5 C4 N1 125.3(3) . . ?
C5 C4 C3 126.6(3) . . ?
N1 C4 C3 108.1(3) . . ?
C4 C5 C6 125.4(3) . . ?
C4 C5 C21 117.9(3) . . ?
C6 C5 C21 116.6(3) . . ?
N2 C6 C7 110.3(3) . . ?
N2 C6 C5 124.2(3) . . ?
C7 C6 C5 125.4(3) . . ?
C8 C7 C6 106.2(3) . . ?
C8 C7 H7 126.9 . . ?
C6 C7 H7 126.9 . . ?
C7 C8 C9 107.0(3) . . ?
C7 C8 H8 126.5 . . ?
C9 C8 H8 126.5 . . ?
N2 C9 C8 110.7(3) . . ?
N2 C9 C10 125.1(3) . . ?
C8 C9 C10 124.2(3) . . ?
C11 C10 C9 125.3(3) . . ?
C11 C10 C28 118.7(3) . . ?
C9 C10 C28 116.0(3) . . ?
N3 C11 C10 124.9(3) . . ?
N3 C11 C12 109.3(3) . . ?
C10 C11 C12 125.8(3) . . ?
C13 C12 C11 107.7(3) . . ?
C13 C12 H12 126.1 . . ?
C11 C12 H12 126.1 . . ?
C12 C13 C14 105.7(4) . . ?
C12 C13 H13 127.2 . . ?
C14 C13 H13 127.2 . . ?
N3 C14 C13 111.5(3) . . ?
N3 C14 C15 125.2(3) . . ?
C13 C14 C15 123.2(3) . . ?
C16 C15 C14 125.4(3) . . ?
C16 C15 C35 117.2(3) . . ?
C14 C15 C35 117.3(3) . . ?
C15 C16 N4 125.4(3) . . ?
C15 C16 C17 125.4(3) . . ?
N4 C16 C17 109.1(3) . . ?
C18 C17 C16 106.6(3) . . ?
C18 C17 H17 126.7 . . ?
C16 C17 H17 126.7 . . ?
C17 C18 C19 106.2(3) . . ?
C17 C18 H18 126.9 . . ?
C19 C18 H18 126.9 . . ?
N4 C19 C18 112.2(3) . . ?
N4 C19 C20 127.6(3) . . ?
C18 C19 C20 119.9(3) . . ?
C1 C20 C19 118.3(3) . . ?
C1 C20 C49 108.1(3) . . ?
C19 C20 C49 102.9(3) . . ?
C1 C20 C42 105.0(3) . . ?
C19 C20 C42 107.9(3) . . ?
C49 C20 C42 115.2(3) . . ?
C26 C21 C22 117.2(3) . . ?
C26 C21 C5 121.0(3) . . ?
C22 C21 C5 121.8(3) . . ?
C23 C22 C21 121.1(3) . . ?
C23 C22 H22 119.5 . . ?
C21 C22 H22 119.5 . . ?
C22 C23 C24 120.5(3) . . ?
C22 C23 H23 119.8 . . ?
C24 C23 H23 119.8 . . ?
O1 C24 C25 124.5(3) . . ?
O1 C24 C23 116.2(3) . . ?
C25 C24 C23 119.3(3) . . ?
C26 C25 C24 119.6(3) . . ?
C26 C25 H25 120.2 . . ?
C24 C25 H25 120.2 . . ?
C25 C26 C21 122.3(4) . . ?
C25 C26 H26 118.8 . . ?
C21 C26 H26 118.8 . . ?
O1 C27 H27A 109.5 . . ?
O1 C27 H27B 109.5 . . ?
H27A C27 H27B 109.5 . . ?
O1 C27 H27C 109.5 . . ?
H27A C27 H27C 109.5 . . ?
H27B C27 H27C 109.5 . . ?
C33 C28 C29 117.9(4) . . ?
C33 C28 C10 119.0(4) . . ?
C29 C28 C10 123.0(3) . . ?
C30 C29 C28 121.1(4) . . ?
C30 C29 H29 119.5 . . ?
C28 C29 H29 119.5 . . ?
C31 C30 C29 120.0(4) . . ?
C31 C30 H30 120.0 . . ?
C29 C30 H30 120.0 . . ?
O2 C31 C30 125.1(5) . . ?
O2 C31 C32 114.6(5) . . ?
C30 C31 C32 120.2(4) . . ?
C33 C32 C31 119.2(4) . . ?
C33 C32 H32 120.4 . . ?
C31 C32 H32 120.4 . . ?
C32 C33 C28 121.5(4) . . ?
C32 C33 H33 119.3 . . ?
C28 C33 H33 119.3 . . ?
O2 C34 H34A 109.5 . . ?
O2 C34 H34B 109.5 . . ?
H34A C34 H34B 109.5 . . ?
O2 C34 H34C 109.5 . . ?
H34A C34 H34C 109.5 . . ?
H34B C34 H34C 109.5 . . ?
C40 C35 C36 118.2(3) . . ?
C40 C35 C15 120.7(3) . . ?
C36 C35 C15 121.0(3) . . ?
C37 C36 C35 120.7(4) . . ?
C37 C36 H36 119.7 . . ?
C35 C36 H36 119.7 . . ?
C36 C37 C38 121.0(4) . . ?
C36 C37 H37 119.5 . . ?
C38 C37 H37 119.5 . . ?
O3 C38 C37 115.5(4) . . ?
O3 C38 C39 125.4(4) . . ?
C37 C38 C39 119.1(4) . . ?
C38 C39 C40 119.9(4) . . ?
C38 C39 H39 120.1 . . ?
C40 C39 H39 120.1 . . ?
C39 C40 C35 121.1(4) . . ?
C39 C40 H40 119.4 . . ?
C35 C40 H40 119.4 . . ?
O3 C41 H41A 109.5 . . ?
O3 C41 H41B 109.5 . . ?
H41A C41 H41B 109.5 . . ?
O3 C41 H41C 109.5 . . ?
H41A C41 H41C 109.5 . . ?
H41B C41 H41C 109.5 . . ?
C43 C42 C47 118.3(3) . . ?
C43 C42 C20 118.0(3) . . ?
C47 C42 C20 123.5(3) . . ?
C42 C43 C44 121.6(3) . . ?
C42 C43 H43 119.2 . . ?
C44 C43 H43 119.2 . . ?
C45 C44 C43 118.7(4) . . ?
C45 C44 H44 120.7 . . ?
C43 C44 H44 120.7 . . ?
O4 C45 C46 116.2(3) . . ?
O4 C45 C44 123.6(4) . . ?
C46 C45 C44 120.2(4) . . ?
C47 C46 C45 120.5(4) . . ?
C47 C46 H46 119.7 . . ?
C45 C46 H46 119.7 . . ?
C46 C47 C42 120.7(3) . . ?
C46 C47 H47 119.7 . . ?
C42 C47 H47 119.7 . . ?
O4 C48 H48A 109.5 . . ?
O4 C48 H48B 109.5 . . ?
H48A C48 H48B 109.5 . . ?
O4 C48 H48C 109.5 . . ?
H48A C48 H48C 109.5 . . ?
H48B C48 H48C 109.5 . . ?
C52 N5 C49 108.7(3) . . ?
C52 N5 H5N 135(4) . . ?
C49 N5 H5N 116(4) . . ?
C50 C49 N5 108.2(3) . . ?
C50 C49 C20 133.7(3) . . ?
N5 C49 C20 117.8(3) . . ?
C49 C50 C51 107.2(3) . . ?
C49 C50 H50 126.4 . . ?
C51 C50 H50 126.4 . . ?
C52 C51 C50 107.7(4) . . ?
C52 C51 H51 126.2 . . ?
C50 C51 H51 126.2 . . ?
C51 C52 N5 108.2(4) . . ?
C51 C52 H52 125.9 . . ?
N5 C52 H52 125.9 . . ?
C201 C202 C203 107.99(10) . . ?
C201 C202 H20A 110.1 . . ?
C203 C202 H20A 110.1 . . ?
C201 C202 H20B 110.1 . . ?
C203 C202 H20B 110.1 . . ?
H20A C202 H20B 108.4 . . ?
Cl11 C101 Cl12 111.18(9) . . ?
Cl11 C101 H10A 109.4 . . ?
Cl12 C101 H10A 109.4 . . ?
Cl11 C101 H10B 109.4 . . ?
Cl12 C101 H10B 109.4 . . ?
H10A C101 H10B 108.0 . . ?
C202 C201 H20C 109.5 . . ?
C202 C201 H20D 109.5 . . ?
H20C C201 H20D 109.5 . . ?
C202 C201 H20E 109.5 . . ?
H20C C201 H20E 109.5 . . ?
H20D C201 H20E 109.5 . . ?
C205 C204 C203 108.04(10) . . ?
C205 C204 H20F 110.1 . . ?
C203 C204 H20F 110.1 . . ?
C205 C204 H20G 110.1 . . ?
C203 C204 H20G 110.1 . . ?
H20F C204 H20G 108.4 . . ?
C204 C203 C202 108.01(10) . . ?
C204 C203 H20H 110.1 . . ?
C202 C203 H20H 110.1 . . ?
C204 C203 H20I 110.1 . . ?
C202 C203 H20I 110.1 . . ?
H20H C203 H20I 108.4 . . ?
C204 C205 H20J 109.5 . . ?
C204 C205 H20K 109.5 . . ?
H20J C205 H20K 109.5 . . ?
C204 C205 H20L 109.5 . . ?
H20J C205 H20L 109.5 . . ?
H20K C205 H20L 109.5 . . ?
Cl32 C301 Cl31 111.26(9) . . ?
Cl32 C301 H10C 109.4 . . ?
Cl31 C301 H10C 109.4 . . ?
Cl32 C301 H10D 109.4 . . ?
Cl31 C301 H10D 109.4 . . ?
H10C C301 H10D 108.0 . . ?
 
loop_
 _geom_torsion_atom_site_label_1
 _geom_torsion_atom_site_label_2
 _geom_torsion_atom_site_label_3
 _geom_torsion_atom_site_label_4
 _geom_torsion
 _geom_torsion_site_symmetry_1
 _geom_torsion_site_symmetry_2
 _geom_torsion_site_symmetry_3
 _geom_torsion_site_symmetry_4
 _geom_torsion_publ_flag
N2 Zn1 N1 C1 -173.8(3) . . . . ?
N3 Zn1 N1 C1 106.1(3) . . . . ?
N4 Zn1 N1 C1 30.3(3) . . . . ?
Cl1 Zn1 N1 C1 -68.5(3) . . . . ?
N2 Zn1 N1 C4 -24.4(3) . . . . ?
N3 Zn1 N1 C4 -104.5(3) . . . . ?
N4 Zn1 N1 C4 179.7(3) . . . . ?
Cl1 Zn1 N1 C4 80.9(3) . . . . ?
N3 Zn1 N2 C6 161.8(3) . . . . ?
N4 Zn1 N2 C6 83.0(4) . . . . ?
N1 Zn1 N2 C6 8.6(3) . . . . ?
Cl1 Zn1 N2 C6 -90.2(3) . . . . ?
N3 Zn1 N2 C9 -18.3(3) . . . . ?
N4 Zn1 N2 C9 -97.0(4) . . . . ?
N1 Zn1 N2 C9 -171.5(3) . . . . ?
Cl1 Zn1 N2 C9 89.7(3) . . . . ?
N2 Zn1 N3 C14 -179.5(3) . . . . ?
N4 Zn1 N3 C14 -24.1(3) . . . . ?
N1 Zn1 N3 C14 -99.7(4) . . . . ?
Cl1 Zn1 N3 C14 74.7(3) . . . . ?
N2 Zn1 N3 C11 31.2(3) . . . . ?
N4 Zn1 N3 C11 -173.4(3) . . . . ?
N1 Zn1 N3 C11 111.0(3) . . . . ?
Cl1 Zn1 N3 C11 -74.6(3) . . . . ?
N2 Zn1 N4 C19 -91.4(4) . . . . ?
N3 Zn1 N4 C19 -170.4(3) . . . . ?
N1 Zn1 N4 C19 -16.8(3) . . . . ?
Cl1 Zn1 N4 C19 82.1(3) . . . . ?
N2 Zn1 N4 C16 95.6(4) . . . . ?
N3 Zn1 N4 C16 16.6(3) . . . . ?
N1 Zn1 N4 C16 170.2(3) . . . . ?
Cl1 Zn1 N4 C16 -90.9(3) . . . . ?
C4 N1 C1 C2 -1.3(4) . . . . ?
Zn1 N1 C1 C2 152.4(2) . . . . ?
C4 N1 C1 C20 176.3(3) . . . . ?
Zn1 N1 C1 C20 -30.1(5) . . . . ?
N1 C1 C2 C3 0.9(4) . . . . ?
C20 C1 C2 C3 -176.8(3) . . . . ?
C1 C2 C3 C4 -0.1(4) . . . . ?
C1 N1 C4 C5 -177.0(3) . . . . ?
Zn1 N1 C4 C5 28.9(5) . . . . ?
C1 N1 C4 C3 1.2(4) . . . . ?
Zn1 N1 C4 C3 -152.9(2) . . . . ?
C2 C3 C4 C5 177.5(4) . . . . ?
C2 C3 C4 N1 -0.7(4) . . . . ?
N1 C4 C5 C6 -8.3(6) . . . . ?
C3 C4 C5 C6 173.8(3) . . . . ?
N1 C4 C5 C21 170.7(3) . . . . ?
C3 C4 C5 C21 -7.2(5) . . . . ?
C9 N2 C6 C7 2.5(4) . . . . ?
Zn1 N2 C6 C7 -177.6(2) . . . . ?
C9 N2 C6 C5 -173.7(3) . . . . ?
Zn1 N2 C6 C5 6.2(5) . . . . ?
C4 C5 C6 N2 -10.9(6) . . . . ?
C21 C5 C6 N2 170.1(3) . . . . ?
C4 C5 C6 C7 173.5(4) . . . . ?
C21 C5 C6 C7 -5.5(5) . . . . ?
N2 C6 C7 C8 -2.7(4) . . . . ?
C5 C6 C7 C8 173.4(3) . . . . ?
C6 C7 C8 C9 1.8(4) . . . . ?
C6 N2 C9 C8 -1.3(4) . . . . ?
Zn1 N2 C9 C8 178.7(2) . . . . ?
C6 N2 C9 C10 180.0(3) . . . . ?
Zn1 N2 C9 C10 0.1(5) . . . . ?
C7 C8 C9 N2 -0.4(4) . . . . ?
C7 C8 C9 C10 178.3(4) . . . . ?
N2 C9 C10 C11 15.4(6) . . . . ?
C8 C9 C10 C11 -163.1(4) . . . . ?
N2 C9 C10 C28 -163.1(3) . . . . ?
C8 C9 C10 C28 18.4(5) . . . . ?
C14 N3 C11 C10 177.1(4) . . . . ?
Zn1 N3 C11 C10 -28.2(5) . . . . ?
C14 N3 C11 C12 -0.6(4) . . . . ?
Zn1 N3 C11 C12 154.1(3) . . . . ?
C9 C10 C11 N3 0.3(6) . . . . ?
C28 C10 C11 N3 178.8(3) . . . . ?
C9 C10 C11 C12 177.7(4) . . . . ?
C28 C10 C11 C12 -3.8(6) . . . . ?
N3 C11 C12 C13 1.9(5) . . . . ?
C10 C11 C12 C13 -175.9(4) . . . . ?
C11 C12 C13 C14 -2.2(5) . . . . ?
C11 N3 C14 C13 -0.8(4) . . . . ?
Zn1 N3 C14 C13 -154.2(3) . . . . ?
C11 N3 C14 C15 177.8(3) . . . . ?
Zn1 N3 C14 C15 24.5(5) . . . . ?
C12 C13 C14 N3 2.0(5) . . . . ?
C12 C13 C14 C15 -176.7(4) . . . . ?
N3 C14 C15 C16 -8.2(6) . . . . ?
C13 C14 C15 C16 170.2(4) . . . . ?
N3 C14 C15 C35 169.6(3) . . . . ?
C13 C14 C15 C35 -11.9(5) . . . . ?
C14 C15 C16 N4 0.1(6) . . . . ?
C35 C15 C16 N4 -177.8(3) . . . . ?
C14 C15 C16 C17 176.4(3) . . . . ?
C35 C15 C16 C17 -1.4(5) . . . . ?
C19 N4 C16 C15 176.8(3) . . . . ?
Zn1 N4 C16 C15 -8.9(5) . . . . ?
C19 N4 C16 C17 -0.1(4) . . . . ?
Zn1 N4 C16 C17 174.2(2) . . . . ?
C15 C16 C17 C18 -176.8(3) . . . . ?
N4 C16 C17 C18 0.0(4) . . . . ?
C16 C17 C18 C19 0.0(4) . . . . ?
C16 N4 C19 C18 0.1(4) . . . . ?
Zn1 N4 C19 C18 -174.0(2) . . . . ?
C16 N4 C19 C20 174.7(3) . . . . ?
Zn1 N4 C19 C20 0.6(5) . . . . ?
C17 C18 C19 N4 -0.1(4) . . . . ?
C17 C18 C19 C20 -175.2(3) . . . . ?
N1 C1 C20 C19 4.9(5) . . . . ?
C2 C1 C20 C19 -177.8(3) . . . . ?
N1 C1 C20 C49 121.1(4) . . . . ?
C2 C1 C20 C49 -61.5(4) . . . . ?
N1 C1 C20 C42 -115.5(4) . . . . ?
C2 C1 C20 C42 61.9(4) . . . . ?
N4 C19 C20 C1 11.3(5) . . . . ?
C18 C19 C20 C1 -174.5(3) . . . . ?
N4 C19 C20 C49 -107.7(4) . . . . ?
C18 C19 C20 C49 66.5(4) . . . . ?
N4 C19 C20 C42 130.2(4) . . . . ?
C18 C19 C20 C42 -55.6(4) . . . . ?
C4 C5 C21 C26 132.6(4) . . . . ?
C6 C5 C21 C26 -48.3(5) . . . . ?
C4 C5 C21 C22 -49.3(5) . . . . ?
C6 C5 C21 C22 129.8(4) . . . . ?
C26 C21 C22 C23 1.2(5) . . . . ?
C5 C21 C22 C23 -177.0(4) . . . . ?
C21 C22 C23 C24 -0.3(6) . . . . ?
C27 O1 C24 C25 -2.8(6) . . . . ?
C27 O1 C24 C23 178.6(4) . . . . ?
C22 C23 C24 O1 178.5(4) . . . . ?
C22 C23 C24 C25 -0.1(6) . . . . ?
O1 C24 C25 C26 -178.9(4) . . . . ?
C23 C24 C25 C26 -0.4(6) . . . . ?
C24 C25 C26 C21 1.3(6) . . . . ?
C22 C21 C26 C25 -1.7(5) . . . . ?
C5 C21 C26 C25 176.5(3) . . . . ?
C11 C10 C28 C33 -121.0(4) . . . . ?
C9 C10 C28 C33 57.6(5) . . . . ?
C11 C10 C28 C29 56.0(5) . . . . ?
C9 C10 C28 C29 -125.4(4) . . . . ?
C33 C28 C29 C30 1.3(6) . . . . ?
C10 C28 C29 C30 -175.7(4) . . . . ?
C28 C29 C30 C31 1.4(6) . . . . ?
C34 O2 C31 C30 -3.9(7) . . . . ?
C34 O2 C31 C32 175.6(5) . . . . ?
C29 C30 C31 O2 178.1(4) . . . . ?
C29 C30 C31 C32 -1.3(7) . . . . ?
O2 C31 C32 C33 179.1(5) . . . . ?
C30 C31 C32 C33 -1.4(8) . . . . ?
C31 C32 C33 C28 4.1(8) . . . . ?
C29 C28 C33 C32 -4.0(7) . . . . ?
C10 C28 C33 C32 173.1(4) . . . . ?
C16 C15 C35 C40 -65.8(5) . . . . ?
C14 C15 C35 C40 116.2(4) . . . . ?
C16 C15 C35 C36 111.9(4) . . . . ?
C14 C15 C35 C36 -66.2(4) . . . . ?
C40 C35 C36 C37 0.3(5) . . . . ?
C15 C35 C36 C37 -177.4(3) . . . . ?
C35 C36 C37 C38 -1.4(6) . . . . ?
C41 O3 C38 C37 175.8(6) . . . . ?
C41 O3 C38 C39 -5.3(8) . . . . ?
C36 C37 C38 O3 -179.6(4) . . . . ?
C36 C37 C38 C39 1.4(6) . . . . ?
O3 C38 C39 C40 -179.2(4) . . . . ?
C37 C38 C39 C40 -0.4(6) . . . . ?
C38 C39 C40 C35 -0.7(6) . . . . ?
C36 C35 C40 C39 0.8(6) . . . . ?
C15 C35 C40 C39 178.4(4) . . . . ?
C1 C20 C42 C43 84.0(4) . . . . ?
C19 C20 C42 C43 -43.0(4) . . . . ?
C49 C20 C42 C43 -157.2(3) . . . . ?
C1 C20 C42 C47 -91.1(4) . . . . ?
C19 C20 C42 C47 141.9(3) . . . . ?
C49 C20 C42 C47 27.7(5) . . . . ?
C47 C42 C43 C44 1.0(5) . . . . ?
C20 C42 C43 C44 -174.3(3) . . . . ?
C42 C43 C44 C45 0.0(6) . . . . ?
C48 O4 C45 C46 167.9(4) . . . . ?
C48 O4 C45 C44 -11.8(6) . . . . ?
C43 C44 C45 O4 178.3(4) . . . . ?
C43 C44 C45 C46 -1.4(6) . . . . ?
O4 C45 C46 C47 -178.0(3) . . . . ?
C44 C45 C46 C47 1.7(6) . . . . ?
C45 C46 C47 C42 -0.7(6) . . . . ?
C43 C42 C47 C46 -0.7(5) . . . . ?
C20 C42 C47 C46 174.4(3) . . . . ?
C52 N5 C49 C50 0.2(4) . . . . ?
C52 N5 C49 C20 -174.6(3) . . . . ?
C1 C20 C49 C50 140.5(4) . . . . ?
C19 C20 C49 C50 -93.7(5) . . . . ?
C42 C20 C49 C50 23.5(6) . . . . ?
C1 C20 C49 N5 -46.4(4) . . . . ?
C19 C20 C49 N5 79.4(4) . . . . ?
C42 C20 C49 N5 -163.5(3) . . . . ?
N5 C49 C50 C51 0.1(4) . . . . ?
C20 C49 C50 C51 173.6(4) . . . . ?
C49 C50 C51 C52 -0.3(5) . . . . ?
C50 C51 C52 N5 0.4(5) . . . . ?
C49 N5 C52 C51 -0.4(5) . . . . ?
C205 C204 C203 C202 -175.5(11) . . . . ?
C201 C202 C203 C204 179.3(9) . . . . ?
 
_diffrn_measured_fraction_theta_max    1.000
_diffrn_reflns_theta_full              70.00
_diffrn_measured_fraction_theta_full   1.000
_refine_diff_density_max    1.329
_refine_diff_density_min   -1.625
_refine_diff_density_rms    0.123


_exptl_crystal_recrystallization_method
;
 From a solution in diclormethane with vapourdiffusion of n-pentane at 20deg C.
;

_iucr_refine_instructions
;
TITL ps13bw in P2(1)2(1)2(1)
CELL  1.54184  11.2636  19.2851  23.6216   90.000   90.000   90.000
ZERR     5.00   0.0001   0.0001   0.0001    0.000    0.000    0.000
LATT  -1
SYMM  1/2 - X, - Y, 1/2 + Z
SYMM  1/2 + X, 1/2 - Y, - Z
SYMM  - X, 1/2 + Y, 1/2 - Z
SFAC  C    H    N    O    ZN   CL
UNIT  228  201  20   16   4    14
MERG   2
OMIT    -2.00 140.00
isor 0.01 0.02 c301
isor 0.01 0.02 c205
DFIX  1.767 0.001 C301 CL32
DFIX  1.767 0.001 C301 CL31
DFIX  2.917 0.001 CL32 CL31
DFIX  1.767 0.001 C101 CL12
DFIX  1.767 0.001 C101 CL11
DFIX  2.917 0.001 CL12 CL11
dfix 1.54  0.001 c201 c202
dfix 1.54  0.001 c202 c203
dfix 1.54  0.001 c203 c204
dfix 1.54  0.001 c204 c205
dfix 2.492 0.001 c201 c203
dfix 2.492 0.001 c202 c204
dfix 2.492 0.001 c203 c205
FMAP   2
PLAN   10
ACTA
BOND
BOND   $H
CONF
L.S.   8
TEMP  -173.00
WGHT    0.124800    5.375700
FVAR       2.80811   0.71393
H5N   2    1.062755    0.167277    0.374751    11.00000    0.02045
MOLE    1
ZN1   5    0.831527    0.095841    0.452496    11.00000    0.01742    0.01729 =
         0.02258    0.00006   -0.00060   -0.00129
CL1   6    0.978355    0.042285    0.398952    11.00000    0.02562    0.02339 =
         0.03440   -0.00344    0.00611    0.00303
N1    3    0.798009    0.183470    0.400053    11.00000    0.01726    0.01815 =
         0.02252   -0.00128   -0.00035   -0.00096
N2    3    0.671555    0.055776    0.422901    11.00000    0.02151    0.01723 =
         0.02431    0.00019   -0.00047   -0.00270
N3    3    0.807748    0.037258    0.526624    11.00000    0.02077    0.01863 =
         0.02383   -0.00011    0.00107   -0.00173
N4    3    0.939538    0.163050    0.501763    11.00000    0.02029    0.01592 =
         0.02009   -0.00146   -0.00136   -0.00025
O1    4    0.315575    0.181913    0.160520    11.00000    0.03421    0.03350 =
         0.02656   -0.00418   -0.01229    0.00218
O2    4    0.490353   -0.319708    0.500142    11.00000    0.06172    0.01629 =
         0.08472   -0.00038   -0.01376   -0.00926
O3    4    1.179843    0.075218    0.803417    11.00000    0.04757    0.07290 =
         0.03258    0.02038   -0.01772   -0.02512
O4    4    0.790229    0.533906    0.476202    11.00000    0.04478    0.02276 =
         0.03934    0.00100    0.00210    0.00958
C1    1    0.874061    0.235317    0.391703    11.00000    0.02085    0.01758 =
         0.02261    0.00088    0.00018   -0.00058
C2    1    0.856275    0.267711    0.337533    11.00000    0.02494    0.02405 =
         0.02374    0.00387    0.00068   -0.00441
AFIX  43
H2    2    0.900561    0.305217    0.322238    11.00000   -1.20000
AFIX   0
C3    1    0.764523    0.234578    0.312575    11.00000    0.02135    0.02483 =
         0.02141    0.00330   -0.00015   -0.00038
AFIX  43
H3    2    0.731964    0.244436    0.276358    11.00000   -1.20000
AFIX   0
C4    1    0.724927    0.180991    0.351534    11.00000    0.01980    0.01907 =
         0.02058    0.00013   -0.00206   -0.00016
C5    1    0.630958    0.136743    0.343947    11.00000    0.02030    0.01835 =
         0.02057   -0.00329    0.00010    0.00320
C6    1    0.600441    0.079977    0.380627    11.00000    0.01806    0.02121 =
         0.02511   -0.00327   -0.00141   -0.00108
C7    1    0.495952    0.038029    0.375864    11.00000    0.02045    0.02582 =
         0.03080   -0.00255    0.00104   -0.00305
AFIX  43
H7    2    0.431078    0.045035    0.350808    11.00000   -1.20000
AFIX   0
C8    1    0.508343   -0.014022    0.414558    11.00000    0.02246    0.02506 =
         0.02827    0.00089    0.00093   -0.00345
AFIX  43
H8    2    0.454487   -0.051114    0.420955    11.00000   -1.20000
AFIX   0
C9    1    0.616527   -0.002252    0.443303    11.00000    0.02030    0.01907 =
         0.02522   -0.00182    0.00126   -0.00295
C10   1    0.660220   -0.044758    0.488396    11.00000    0.02153    0.01914 =
         0.02718    0.00148    0.00168   -0.00157
C11   1    0.748952   -0.025889    0.526568    11.00000    0.02655    0.01603 =
         0.02811    0.00302    0.00028   -0.00173
C12   1    0.790189   -0.066721    0.572641    11.00000    0.03764    0.02286 =
         0.03362    0.00853   -0.01032   -0.00700
AFIX  43
H12   2    0.765792   -0.112619    0.581471    11.00000   -1.20000
AFIX   0
C13   1    0.870588   -0.028407    0.601725    11.00000    0.03300    0.02267 =
         0.03447    0.00678   -0.00468   -0.00146
AFIX  43
H13   2    0.911413   -0.041281    0.635311    11.00000   -1.20000
AFIX   0
C14   1    0.881151    0.035431    0.571317    11.00000    0.02184    0.02089 =
         0.02499    0.00342    0.00062   -0.00110
C15   1    0.963606    0.089831    0.586988    11.00000    0.01527    0.01980 =
         0.02599   -0.00009    0.00225    0.00148
C16   1    0.989274    0.147408    0.555026    11.00000    0.01847    0.02059 =
         0.01941   -0.00221   -0.00343   -0.00003
C17   1    1.066729    0.203578    0.572084    11.00000    0.01683    0.02285 =
         0.02254   -0.00042   -0.00146   -0.00075
AFIX  43
H17   2    1.111432    0.206380    0.606111    11.00000   -1.20000
AFIX   0
C18   1    1.063063    0.251068    0.530329    11.00000    0.02112    0.02283 =
         0.02367   -0.00260   -0.00313   -0.00501
AFIX  43
H18   2    1.104572    0.293920    0.529008    11.00000   -1.20000
AFIX   0
C19   1    0.982606    0.223501    0.487574    11.00000    0.01632    0.02330 =
         0.01918   -0.00083   -0.00189   -0.00124
C20   1    0.965746    0.261745    0.432353    11.00000    0.01750    0.01934 =
         0.02216    0.00163   -0.00032   -0.00228
C21   1    0.551708    0.148551    0.293995    11.00000    0.01712    0.02168 =
         0.02098   -0.00199   -0.00152   -0.00066
C22   1    0.504424    0.214472    0.281565    11.00000    0.02205    0.01977 =
         0.02605   -0.00445    0.00042   -0.00157
AFIX  43
H22   2    0.526138    0.253073    0.304304    11.00000   -1.20000
AFIX   0
C23   1    0.427426    0.223833    0.237092    11.00000    0.02500    0.02280 =
         0.02381    0.00159   -0.00442    0.00344
AFIX  43
H23   2    0.396241    0.268657    0.229534    11.00000   -1.20000
AFIX   0
C24   1    0.394638    0.167797    0.202863    11.00000    0.02275    0.02724 =
         0.02361   -0.00217   -0.00051   -0.00205
C25   1    0.441085    0.102368    0.214274    11.00000    0.02534    0.02382 =
         0.02581   -0.00757   -0.00100   -0.00414
AFIX  43
H25   2    0.419252    0.063801    0.191522    11.00000   -1.20000
AFIX   0
C26   1    0.518846    0.093865    0.258719    11.00000    0.02381    0.02248 =
         0.02590   -0.00198   -0.00045   -0.00151
AFIX  43
H26   2    0.551235    0.049165    0.265584    11.00000   -1.20000
AFIX   0
C27   1    0.282518    0.125755    0.123995    11.00000    0.03691    0.04116 =
         0.03185   -0.00762   -0.01566   -0.00646
AFIX 137
H27A  2    0.352059    0.110391    0.102447    11.00000   -1.50000
H27B  2    0.220599    0.141347    0.097776    11.00000   -1.50000
H27C  2    0.252302    0.087145    0.146799    11.00000   -1.50000
AFIX   0
C28   1    0.607192   -0.114746    0.492976    11.00000    0.02392    0.01810 =
         0.03269   -0.00185   -0.00036   -0.00305
C29   1    0.554538   -0.139673    0.542826    11.00000    0.02571    0.02165 =
         0.03424    0.00169    0.00067   -0.00129
AFIX  43
H29   2    0.547324   -0.109805    0.574622    11.00000   -1.20000
AFIX   0
C30   1    0.512986   -0.207000    0.546417    11.00000    0.02824    0.02406 =
         0.04635    0.00789   -0.00161   -0.00225
AFIX  43
H30   2    0.476027   -0.222757    0.580201    11.00000   -1.20000
AFIX   0
C31   1    0.525218   -0.251255    0.500942    11.00000    0.03597    0.01700 =
         0.06231   -0.00038   -0.00722   -0.00375
C32   1    0.577315   -0.227925    0.450740    11.00000    0.07110    0.02148 =
         0.04364   -0.00370    0.00030    0.00042
AFIX  43
H32   2    0.587403   -0.258580    0.419629    11.00000   -1.20000
AFIX   0
C33   1    0.614125   -0.159413    0.446909    11.00000    0.04583    0.02414 =
         0.03682   -0.00225    0.00398    0.00102
AFIX  43
H33   2    0.644748   -0.142664    0.412020    11.00000   -1.20000
AFIX   0
C34   1    0.444753   -0.348048    0.551001    11.00000    0.04150    0.02176 =
         0.11262    0.01721   -0.00364   -0.00998
AFIX 137
H34A  2    0.507988   -0.350054    0.579450    11.00000   -1.50000
H34B  2    0.414776   -0.394926    0.543781    11.00000   -1.50000
H34C  2    0.379942   -0.318775    0.564964    11.00000   -1.50000
AFIX   0
C35   1    1.022919    0.084034    0.643708    11.00000    0.02292    0.01921 =
         0.02150    0.00123   -0.00019   -0.00256
C36   1    0.957471    0.089132    0.693816    11.00000    0.02671    0.02008 =
         0.02937    0.00187    0.00021    0.00022
AFIX  43
H36   2    0.873698    0.094441    0.692085    11.00000   -1.20000
AFIX   0
C37   1    1.013235    0.086534    0.745692    11.00000    0.04075    0.02531 =
         0.02211    0.00361    0.00005   -0.00360
AFIX  43
H37   2    0.967543    0.091125    0.779288    11.00000   -1.20000
AFIX   0
C38   1    1.135012    0.077321    0.749588    11.00000    0.04065    0.03152 =
         0.02617    0.00789   -0.00593   -0.01356
C39   1    1.201557    0.072203    0.700149    11.00000    0.02369    0.04048 =
         0.03880    0.01567   -0.00598   -0.00681
AFIX  43
H39   2    1.285155    0.066154    0.702151    11.00000   -1.20000
AFIX   0
C40   1    1.145415    0.075964    0.647742    11.00000    0.02565    0.02543 =
         0.03180    0.00670    0.00056   -0.00008
AFIX  43
H40   2    1.191508    0.072971    0.614150    11.00000   -1.20000
AFIX   0
C41   1    1.303520    0.061080    0.809255    11.00000    0.04394    0.17254 =
         0.04999    0.04498   -0.01799   -0.02280
AFIX 137
H41A  2    1.327064    0.025666    0.781700    11.00000   -1.50000
H41B  2    1.319597    0.044229    0.847636    11.00000   -1.50000
H41C  2    1.348885    0.103631    0.802438    11.00000   -1.50000
AFIX   0
C42   1    0.926773    0.336602    0.446354    11.00000    0.02138    0.01925 =
         0.02108   -0.00054   -0.00324   -0.00264
C43   1    0.842285    0.345962    0.488668    11.00000    0.01999    0.02245 =
         0.02672    0.00348    0.00067   -0.00304
AFIX  43
H43   2    0.816403    0.307018    0.509982    11.00000   -1.20000
AFIX   0
C44   1    0.794626    0.411227    0.500557    11.00000    0.02769    0.02449 =
         0.02791   -0.00018   -0.00078    0.00081
AFIX  43
H44   2    0.737015    0.416832    0.529572    11.00000   -1.20000
AFIX   0
C45   1    0.833186    0.467796    0.469085    11.00000    0.02831    0.02156 =
         0.02827    0.00083   -0.00658    0.00263
C46   1    0.919203    0.459314    0.427645    11.00000    0.02704    0.02037 =
         0.02979    0.00284   -0.00440   -0.00323
AFIX  43
H46   2    0.946713    0.498436    0.407024    11.00000   -1.20000
AFIX   0
C47   1    0.965040    0.394634    0.416158    11.00000    0.02313    0.02394 =
         0.02513    0.00256   -0.00268   -0.00479
AFIX  43
H47   2    1.023302    0.389469    0.387385    11.00000   -1.20000
AFIX   0
C48   1    0.686542    0.540402    0.510202    11.00000    0.07635    0.03772 =
         0.05218    0.01162    0.02268    0.02997
AFIX 137
H48A  2    0.632640    0.501718    0.502254    11.00000   -1.50000
H48B  2    0.646683    0.584290    0.501476    11.00000   -1.50000
H48C  2    0.708892    0.539672    0.550293    11.00000   -1.50000
AFIX   0
N5    3    1.114349    0.193395    0.377384    11.00000    0.01978    0.02179 =
         0.03450   -0.00113    0.00262   -0.00490
C49   1    1.087545    0.255186    0.404097    11.00000    0.02154    0.02017 =
         0.02357    0.00165   -0.00035   -0.00138
C50   1    1.186739    0.296473    0.402841    11.00000    0.01897    0.02700 =
         0.02885   -0.00250   -0.00312   -0.00523
AFIX  43
H50   2    1.193722    0.341847    0.418140    11.00000   -1.20000
AFIX   0
C51   1    1.276943    0.258693    0.374406    11.00000    0.01932    0.03672 =
         0.03135    0.00159    0.00099   -0.00044
AFIX  43
H51   2    1.355443    0.274297    0.367055    11.00000   -1.20000
AFIX   0
C52   1    1.230376    0.195637    0.359465    11.00000    0.02505    0.03072 =
         0.03504   -0.00247    0.00472   -0.00065
AFIX  43
H52   2    1.271243    0.159684    0.340070    11.00000   -1.20000
AFIX   0
MOLE    2
CL12  6    0.787177    0.680952    0.566264    11.00000    0.06358    0.09472 =
         0.09148   -0.00895   -0.00421   -0.00374
CL11  6    0.723305    0.768098    0.662418    11.00000    0.10828    0.12934 =
         0.05887    0.00616    0.00046    0.02982
C202  1    0.336518    0.625782    0.711389    11.00000    0.08955    0.09568 =
         0.17014    0.00357    0.07037    0.00419
AFIX  23
H20A  2    0.359650    0.610574    0.672909    11.00000   -1.20000
H20B  2    0.248804    0.628211    0.713193    11.00000   -1.20000
AFIX   0
MOLE    3
PART    1
C101  1    0.841149    0.732447    0.622543    21.00000    0.05185    0.06107 =
         0.08280   -0.00444   -0.00604   -0.00423
AFIX  23
H10A  2    0.891728    0.703720    0.647538    21.00000   -1.20000
H10B  2    0.890681    0.770401    0.607098    21.00000   -1.20000
AFIX   0
C201  1    0.390600    0.697396    0.724326    21.00000    0.04659    0.09453 =
         0.09018    0.00147   -0.00827    0.00900
AFIX  33
H20C  2    0.401075    0.702481    0.765302    21.00000   -1.50000
H20D  2    0.337328    0.733780    0.710412    21.00000   -1.50000
H20E  2    0.467810    0.701498    0.705497    21.00000   -1.50000
AFIX   0
C204  1    0.328146    0.502727    0.743366    21.00000    0.09548    0.10721 =
         0.09286   -0.01871    0.02164    0.00556
AFIX  23
H20F  2    0.240499    0.506404    0.742440    21.00000   -1.20000
H20G  2    0.355616    0.485497    0.706123    21.00000   -1.20000
AFIX   0
C203  1    0.383455    0.574142    0.755826    21.00000    0.05428    0.14213 =
         0.09205    0.02260    0.01399    0.01484
AFIX  23
H20H  2    0.471097    0.571274    0.753694    21.00000   -1.20000
H20I  2    0.361198    0.589670    0.794338    21.00000   -1.20000
AFIX   0
C205  1    0.366878    0.452494    0.790558    21.00000    0.14126    0.17636 =
         0.08022    0.02812    0.01946    0.00538
AFIX  33
H20J  2    0.450398    0.439895    0.785137    21.00000   -1.50000
H20K  2    0.317727    0.410600    0.789111    21.00000   -1.50000
H20L  2    0.357159    0.475018    0.827457    21.00000   -1.50000
AFIX   0
PART    3
CL32  6    0.514026    0.372863    0.769207   -21.00000    0.09515    0.09936 =
         0.08560    0.00510    0.00112   -0.02086
CL31  6    0.399173    0.503802    0.797863   -21.00000    0.11901    0.11202 =
         0.08870   -0.02582    0.01529   -0.02419
C301  1    0.393970    0.429070    0.754654   -21.00000    0.05656    0.07005 =
         0.05252   -0.00044   -0.02355   -0.02894
AFIX  23
H10C  2    0.318285    0.404254    0.761259   -21.00000   -1.20000
H10D  2    0.396580    0.443082    0.714354   -21.00000   -1.20000
HKLF    4
 
REM  ps13bw in P2(1)2(1)2(1)
REM R1 =  0.0575 for   9630 Fo > 4sig(Fo)  and  0.0579 for all   9724 data
REM    676 parameters refined using     25 restraints
 
END
 
WGHT      0.1246      5.3836
REM Highest difference peak  1.329,  deepest hole -1.625,  1-sigma level  0.123
Q1    1   0.4997  0.7329  0.7035  11.00000  0.05    1.33
Q2    1   0.4989  0.4229  0.7769  11.00000  0.05    1.01
Q3    1   0.5869  0.4048  0.7579  11.00000  0.05    0.90
Q4    1   0.8164  0.7941  0.6604  11.00000  0.05    0.75
Q5    1   0.5978  0.7156  0.6880  11.00000  0.05    0.72
Q6    1   0.3251  0.6391  0.6966  11.00000  0.05    0.50
Q7    1   0.2733  0.5828  0.6800  11.00000  0.05    0.46
Q8    1   0.4174  0.4984  0.7462  11.00000  0.05    0.42
Q9    1   0.3988  0.3815  0.7906  11.00000  0.05    0.41
Q10   1   1.3115  0.0138  0.7940  11.00000  0.05    0.41

;
